; benchmark generated from python API
(set-info :status unknown)
(declare-datatypes ((RealState 0)) (((RMk1 (rval1 Real)) (RMk2 (rval2 Real)))))
 (assert
 (forall ((|v17:0| Real) )(forall ((|v16:1| Real) )(forall ((|v15:2| Real) )(forall ((|v14:3| Real) )(forall ((|v13:4| Real) )(forall ((|v12:5| Real) )(exists ((|v11:6_st| RealState) (val!10326 Real) )(exists ((|v10:7_st| RealState) (val!10327 Real) )(exists ((|v9:8_st| RealState) (val!10328 Real) )(exists ((|v8:9_st| RealState) (val!10329 Real) )(exists ((|v7:10_st| RealState) (val!10330 Real) )(exists ((|v6:11_st| RealState) (val!10331 Real) )(forall ((|v5:12| Real) )(forall ((|v4:13| Real) )(forall ((|v3:14| Real) )(forall ((|v2:15| Real) )(forall ((|v1:16| Real) )(forall ((|v0:17| Real) )(let ((?x2549 (* 17.0 |v16:1|)))
 (let ((?x8620 (* 13.0 |v3:14|)))
 (let ((?x439 (rval2 |v6:11_st|)))
 (let ((?x1544 (* 14.0 ?x439)))
 (let ((?x4741 (* 11.0 |v2:15|)))
 (let ((?x630 (+ (+ (+ (* (- 12.0) |v17:0|) (* (- 17.0) |v14:3|)) (* 6.0 |v17:0|)) ?x4741)))
 (let ((?x307 (* 18.0 |v17:0|)))
 (let ((?x8083 (* 13.0 |v16:1|)))
 (let ((?x3669 (rval2 |v10:7_st|)))
 (let ((?x5537 (- 1.0)))
 (let ((?x9023 (* ?x5537 ?x3669)))
 (let ((?x4816 (+ (+ (+ (+ (+ |v12:5| (* 9.0 |v12:5|)) (* (- 2.0) |v0:17|)) ?x9023) ?x8083) (* 8.0 |v16:1|))))
 (let ((?x3775 (- 16.0)))
 (let ((?x5187 (- 6.0)))
 (let ((?x3395 (* ?x5187 |v3:14|)))
 (let ((?x5084 (* 13.0 |v15:2|)))
 (let ((?x322 (* 4.0 |v12:5|)))
 (let ((?x4800 (+ (+ (+ (* 6.0 (rval2 |v7:10_st|)) (* 0.0 |v17:0|)) (* (- 20.0) |v17:0|)) ?x322)))
 (let (($x6577 (and (<= (+ (+ (+ ?x4800 (* (- 10.0) (rval2 |v9:8_st|))) ?x5084) ?x3395) ?x3775) (<= (+ ?x4816 ?x307) 18.0))))
 (let ((?x4856 (rval2 |v11:6_st|)))
 (let ((?x9657 (* 7.0 ?x4856)))
 (let ((?x5161 (* 14.0 |v14:3|)))
 (let ((?x7949 (+ (+ (+ (* 2.0 |v2:15|) (* (- 12.0) |v16:1|)) (* 8.0 ?x4856)) ?x5161)))
 (let ((?x9263 (+ (+ (+ ?x7949 (* (- 19.0) (rval2 |v8:9_st|))) ?x9657) (* (- 8.0) |v16:1|))))
 (let ((?x9214 (rval2 |v8:9_st|)))
 (let ((?x2751 (* 11.0 ?x9214)))
 (let ((?x7928 (* 6.0 |v13:4|)))
 (let ((?x2628 (+ (+ (+ (+ (+ ?x7928 (* (- 4.0) |v4:13|)) |v1:16|) ?x7928) ?x2751) (* (- 18.0) |v16:1|))))
 (let (($x8820 (or (and (<= (+ ?x2628 (* 16.0 |v12:5|)) 9.0) (<= ?x9263 18.0)) $x6577)))
 (let ((?x286 (- 19.0)))
 (let ((?x3579 (* 4.0 |v4:13|)))
 (let ((?x5679 (rval2 |v9:8_st|)))
 (let ((?x8687 (* 9.0 ?x5679)))
 (let ((?x4592 (- 4.0)))
 (let ((?x6009 (* ?x4592 |v1:16|)))
 (let ((?x5489 (* 9.0 |v13:4|)))
 (let ((?x4090 (+ (+ (+ (* (- 12.0) ?x9214) (* 0.0 ?x5679)) (* (- 5.0) ?x9214)) ?x5489)))
 (let ((?x9308 (- 7.0)))
 (let ((?x1771 (* ?x3775 |v1:16|)))
 (let ((?x6156 (- 18.0)))
 (let ((?x4942 (* ?x6156 ?x439)))
 (let ((?x7493 (+ (+ (+ (* 19.0 |v1:16|) (* (- 15.0) |v12:5|)) (* 18.0 |v13:4|)) (* ?x3775 ?x439))))
 (let (($x2886 (and (<= (+ (+ (+ ?x7493 (* 4.0 |v15:2|)) ?x4942) ?x1771) ?x9308) (<= (+ (+ (+ ?x4090 ?x6009) ?x8687) ?x3579) ?x286))))
 (let ((?x3812 (- 15.0)))
 (let ((?x2941 (* 16.0 |v0:17|)))
 (let ((?x2540 (- 20.0)))
 (let ((?x3967 (* ?x2540 |v3:14|)))
 (let ((?x6024 (* 0.0 ?x5679)))
 (let ((?x5465 (+ (+ (+ (* (- 8.0) ?x439) (* ?x5187 |v5:12|)) (* 11.0 |v0:17|)) (* 18.0 |v15:2|))))
 (let ((?x1782 (+ (+ (+ (* 5.0 |v14:3|) (* (- 10.0) |v12:5|)) (* (- 11.0) |v16:1|)) (* ?x3775 |v13:4|))))
 (let (($x6289 (<= (+ (+ (+ ?x1782 (* ?x2540 ?x3669)) (* ?x3775 |v15:2|)) (* (- 12.0) ?x5679)) 20.0)))
 (let ((?x7657 (* 5.0 |v3:14|)))
 (let ((?x5802 (* 3.0 ?x439)))
 (let ((?x7410 (- 8.0)))
 (let ((?x3994 (* ?x7410 ?x439)))
 (let ((?x2051 (* 18.0 |v0:17|)))
 (let ((?x6868 (+ (+ (+ (+ (* 10.0 |v2:15|) (* (- 17.0) |v16:1|)) (* ?x9308 ?x4856)) ?x2051) ?x3994)))
 (let ((?x7122 (- 17.0)))
 (let ((?x1541 (* ?x7122 |v14:3|)))
 (let ((?x5092 (* 11.0 ?x5679)))
 (let ((?x8330 (+ (+ (+ (+ (* (- 2.0) ?x3669) (* ?x2540 |v1:16|)) (* ?x6156 |v17:0|)) ?x5092) (* (- 11.0) |v15:2|))))
 (let (($x7683 (or (<= (+ (+ ?x8330 ?x1541) (* 5.0 ?x9214)) 6.0) (<= (+ (+ ?x6868 ?x5802) ?x7657) 19.0))))
 (let ((?x5593 (* ?x7410 |v5:12|)))
 (let ((?x6159 (+ (+ (+ (* ?x3812 |v17:0|) (* (- 10.0) |v13:4|)) (* (- 11.0) |v12:5|)) (* ?x7122 (rval2 |v7:10_st|)))))
 (let (($x4188 (<= (+ (+ (+ ?x6159 (* (- 13.0) (rval2 |v7:10_st|))) ?x5593) (* ?x3812 |v15:2|)) 4.0)))
 (let ((?x8355 (- 12.0)))
 (let ((?x4539 (* ?x5537 |v3:14|)))
 (let ((?x2596 (* ?x7410 |v14:3|)))
 (let ((?x2701 (rval2 |v7:10_st|)))
 (let ((?x235 (* 3.0 ?x2701)))
 (let ((?x357 (+ (+ (+ (+ (+ (* ?x3812 ?x9214) (* 10.0 |v0:17|)) ?x2751) ?x235) ?x2596) ?x4539)))
 (let (($x3455 (or (or (or (<= (+ ?x357 (* ?x5187 |v14:3|)) ?x8355) $x4188) $x7683) (and (or $x6289 (<= (+ (+ (+ ?x5465 ?x6024) ?x3967) ?x2941) ?x3812)) $x2886))))
 (let ((?x9179 (- 9.0)))
 (let ((?x1687 (- 5.0)))
 (let ((?x2908 (* ?x1687 |v5:12|)))
 (let ((?x757 (* 18.0 |v3:14|)))
 (let ((?x78 (* 3.0 |v17:0|)))
 (let ((?x5419 (* 11.0 |v13:4|)))
 (let ((?x7062 (+ (+ (+ (+ (* 13.0 |v14:3|) (* ?x3812 ?x4856)) (* 9.0 ?x439)) ?x5419) ?x78)))
 (let ((?x6712 (* 17.0 |v14:3|)))
 (let ((?x1986 (* 2.0 |v5:12|)))
 (let ((?x5565 (* 4.0 ?x9214)))
 (let ((?x2504 (* 3.0 |v5:12|)))
 (let ((?x2332 (+ (+ (+ (+ (* ?x9308 |v2:15|) (* 6.0 |v17:0|)) (* 15.0 ?x5679)) ?x2504) ?x5565)))
 (let (($x1235 (or (<= (+ (+ ?x2332 ?x1986) ?x6712) ?x5537) (<= (+ (+ ?x7062 ?x757) ?x2908) ?x9179))))
 (let ((?x6059 (- 2.0)))
 (let ((?x7511 (* 3.0 |v0:17|)))
 (let ((?x3778 (* 17.0 |v3:14|)))
 (let ((?x6884 (* 14.0 |v0:17|)))
 (let ((?x5606 (+ (+ (+ (+ (* ?x6156 ?x5679) (* 17.0 |v12:5|)) (* 17.0 ?x3669)) ?x6884) ?x3778)))
 (let ((?x3312 (- 13.0)))
 (let ((?x7672 (* ?x3312 |v4:13|)))
 (let ((?x9566 (- 10.0)))
 (let ((?x4731 (* ?x9566 |v0:17|)))
 (let ((?x1424 (* 6.0 |v12:5|)))
 (let ((?x7569 (+ (+ (+ (+ ?x5092 (* ?x5187 |v17:0|)) (* ?x2540 |v5:12|)) (* ?x7122 ?x439)) ?x1424)))
 (let (($x3900 (and (<= (+ (+ ?x7569 ?x4731) ?x7672) 16.0) (<= (+ (+ ?x5606 ?x7511) (* ?x9566 ?x2701)) ?x6059))))
 (let ((?x6758 (* ?x2540 |v17:0|)))
 (let ((?x6630 (* 10.0 ?x5679)))
 (let ((?x4443 (* 10.0 |v16:1|)))
 (let ((?x3450 (* 10.0 |v12:5|)))
 (let ((?x852 (+ (+ (+ (* (- 14.0) |v13:4|) (* 4.0 ?x3669)) (* 13.0 ?x4856)) ?x3450)))
 (let ((?x114 (* 10.0 |v3:14|)))
 (let ((?x6717 (* ?x7122 ?x439)))
 (let ((?x5627 (* 9.0 |v0:17|)))
 (let ((?x2989 (+ (+ (+ (* (- 3.0) ?x439) (* 18.0 ?x3669)) (* 15.0 ?x9214)) ?x5627)))
 (let (($x2899 (and (<= (+ (+ (+ ?x2989 (* 2.0 ?x4856)) ?x6717) ?x114) ?x9179) (<= (+ (+ (+ ?x852 ?x4443) ?x6630) ?x6758) ?x6059))))
 (let ((?x7554 (* 7.0 ?x2701)))
 (let ((?x1145 (* ?x9308 |v14:3|)))
 (let ((?x8120 (+ (+ (+ (+ (* 17.0 |v5:12|) (* ?x286 ?x4856)) (* ?x3312 |v0:17|)) ?x1145) ?x7554)))
 (let ((?x3082 (* 0.0 |v14:3|)))
 (let ((?x2443 (* 13.0 |v1:16|)))
 (let ((?x6350 (+ (+ (+ (+ (* 20.0 |v0:17|) (* 4.0 ?x5679)) (* ?x7410 |v4:13|)) ?x2443) (* ?x3812 |v16:1|))))
 (let (($x8951 (and (<= (+ (+ ?x6350 (* ?x9308 |v16:1|)) ?x3082) ?x6059) (<= (+ (+ ?x8120 ?x6717) (* ?x3812 |v13:4|)) ?x3775))))
 (let ((?x5637 (* ?x4592 |v4:13|)))
 (let ((?x7925 (- 3.0)))
 (let ((?x7336 (* ?x7925 ?x439)))
 (let ((?x5244 (* 11.0 |v4:13|)))
 (let ((?x3373 (+ (+ (+ (+ (* ?x9179 ?x3669) (* 8.0 ?x3669)) (* 6.0 ?x439)) ?x5244) ?x7336)))
 (let ((?x8275 (* ?x286 |v0:17|)))
 (let ((?x472 (* ?x3812 |v17:0|)))
 (let ((?x3414 (+ (+ (+ (+ (* 18.0 ?x5679) (* 12.0 |v14:3|)) ?x3395) (* 13.0 |v0:17|)) ?x7657)))
 (let (($x9381 (and (<= (+ (+ ?x3414 ?x472) ?x8275) ?x6059) (<= (+ (+ ?x3373 ?x1145) ?x5637) 8.0))))
 (let ((?x6377 (* 12.0 |v4:13|)))
 (let ((?x2571 (+ (+ (+ (* ?x9179 |v17:0|) (* (- 14.0) |v17:0|)) (* 16.0 ?x3669)) (* ?x7925 |v17:0|))))
 (let ((?x6877 (* 5.0 ?x2701)))
 (let ((?x5428 (* ?x7122 |v4:13|)))
 (let ((?x893 (* 5.0 |v14:3|)))
 (let ((?x7806 (+ (+ (+ (+ (* 17.0 |v15:2|) (* 4.0 |v16:1|)) (* 2.0 ?x439)) ?x893) ?x5428)))
 (let (($x3066 (and (<= (+ (+ ?x7806 ?x6877) ?x307) ?x9308) (<= (+ (+ (+ ?x2571 ?x8083) ?x6377) (* ?x7122 |v17:0|)) 10.0))))
 (let ((?x6142 (* ?x9308 ?x5679)))
 (let ((?x8477 (* ?x3312 |v2:15|)))
 (let ((?x4916 (* 13.0 ?x439)))
 (let ((?x5589 (+ (+ (+ (+ (* 9.0 ?x9214) (* 2.0 |v16:1|)) ?x5489) (* 7.0 |v13:4|)) ?x4916)))
 (let ((?x4182 (* 13.0 |v17:0|)))
 (let ((?x1789 (+ (+ (+ (+ (* 8.0 ?x439) (* ?x3775 ?x4856)) (* ?x7925 |v15:2|)) ?x4182) ?x2941)))
 (let (($x2815 (or (<= (+ (+ ?x1789 (* ?x9179 ?x439)) (* (- 14.0) ?x439)) ?x5187) (<= (+ (+ ?x5589 ?x8477) ?x6142) 5.0))))
 (let ((?x4885 (* 18.0 ?x9214)))
 (let ((?x3237 (- 14.0)))
 (let ((?x4750 (* ?x3237 |v3:14|)))
 (let ((?x7294 (+ (+ (+ (+ (* 2.0 |v2:15|) (* ?x9566 |v16:1|)) (* (- 11.0) |v12:5|)) ?x4750) ?x5679)))
 (let ((?x6994 (* ?x7122 |v16:1|)))
 (let ((?x9460 (* 5.0 |v12:5|)))
 (let ((?x4423 (* ?x9179 |v0:17|)))
 (let ((?x7740 (+ (+ (+ (+ (* ?x7925 |v2:15|) (* ?x6156 ?x9214)) (* 12.0 |v15:2|)) ?x4423) ?x9460)))
 (let (($x1370 (and (<= (+ (+ ?x7740 |v17:0|) ?x6994) ?x7122) (<= (+ (+ ?x7294 ?x4443) ?x4885) 15.0))))
 (let (($x4559 (and (and (and $x1370 $x2815) (and $x3066 $x9381)) (or (or $x8951 $x2899) (and $x3900 $x1235)))))
 (let (($x8188 (and $x4559 (or $x3455 (and $x8820 (<= (+ (+ (+ ?x630 ?x1544) ?x8620) ?x2549) 19.0))))))
 (let ((?x8269 (* ?x9179 |v4:13|)))
 (let ((?x7022 (* ?x1687 |v14:3|)))
 (let ((?x4847 (+ (+ (+ (+ (* (- 11.0) ?x4856) ?x5489) (* ?x9179 |v5:12|)) (* ?x1687 |v0:17|)) ?x7022)))
 (let ((?x68 (* 7.0 ?x9214)))
 (let ((?x1643 (+ (+ (+ (+ (* (- 11.0) |v0:17|) (* ?x4592 |v0:17|)) (* ?x9566 |v17:0|)) ?x68) ?x6717)))
 (let (($x1109 (and (<= (+ (+ ?x1643 (* 14.0 ?x5679)) ?x9023) ?x8355) (<= (+ (+ ?x4847 ?x8269) ?x5679) ?x8355))))
 (let ((?x7278 (* 11.0 ?x4856)))
 (let ((?x1374 (* ?x5187 |v5:12|)))
 (let ((?x4790 (+ (+ (+ (+ (* 10.0 ?x9214) (* ?x7410 |v17:0|)) (* 3.0 |v15:2|)) ?x1374) ?x7278)))
 (let ((?x3127 (* 14.0 |v15:2|)))
 (let ((?x50 (* 20.0 |v2:15|)))
 (let ((?x817 (+ (+ (+ (+ (+ ?x9657 (* 10.0 |v0:17|)) ?x5565) (* 8.0 ?x5679)) ?x50) (* ?x4592 |v14:3|))))
 (let (($x5283 (and (<= (+ ?x817 ?x3127) 2.0) (<= (+ (+ ?x4790 (* ?x4592 ?x4856)) ?x9023) ?x7122))))
 (let ((?x452 (* ?x6156 ?x5679)))
 (let ((?x1019 (* 16.0 |v14:3|)))
 (let ((?x737 (+ (+ (+ (+ (+ (* ?x4592 |v16:1|) ?x2504) (* 0.0 |v13:4|)) ?x3082) ?x1019) ?x7554)))
 (let ((?x1526 (* 15.0 |v5:12|)))
 (let ((?x1908 (* ?x3312 |v5:12|)))
 (let ((?x1550 (+ (+ (+ (+ ?x2941 (* 10.0 |v1:16|)) (* (- 11.0) |v5:12|)) (* ?x286 ?x4856)) ?x1019)))
 (let ((?x9120 (* ?x7410 ?x5679)))
 (let ((?x975 (* ?x7410 |v1:16|)))
 (let ((?x7067 (+ (+ (+ (+ (* ?x8355 |v17:0|) (* ?x7925 |v4:13|)) (* ?x8355 |v14:3|)) ?x975) ?x4741)))
 (let (($x6510 (or (<= (+ (+ ?x7067 ?x2596) ?x9120) 17.0) (<= (+ (+ ?x1550 ?x1908) ?x1526) ?x2540))))
 (let ((?x6390 (* ?x1687 |v0:17|)))
 (let ((?x1254 (* ?x5187 |v17:0|)))
 (let ((?x7468 (- 11.0)))
 (let ((?x2942 (* ?x7468 ?x3669)))
 (let ((?x9351 (+ (+ (+ (+ (* ?x3775 |v14:3|) |v16:1|) (* 14.0 |v16:1|)) (* 12.0 |v3:14|)) ?x2942)))
 (let ((?x5074 (* 8.0 |v3:14|)))
 (let ((?x8800 (* ?x4592 ?x439)))
 (let ((?x9464 (* 3.0 |v1:16|)))
 (let ((?x5463 (+ (+ (+ (+ (* 5.0 ?x439) (* 7.0 |v14:3|)) (* ?x7468 |v4:13|)) ?x9464) ?x8800)))
 (let ((?x2352 (* 15.0 |v12:5|)))
 (let ((?x2922 (+ (+ (+ (+ (* ?x286 ?x5679) (* ?x7468 |v1:16|)) (* 18.0 |v16:1|)) ?x322) (* 15.0 ?x2701))))
 (let (($x6228 (or (<= (+ (+ ?x2922 ?x2352) (* ?x6156 ?x2701)) 9.0) (<= (+ (+ ?x5463 ?x5074) (* ?x4592 ?x3669)) ?x1687))))
 (let ((?x4324 (* ?x9308 |v0:17|)))
 (let ((?x5762 (* 17.0 ?x3669)))
 (let ((?x9153 (+ (+ (+ (+ (* ?x3775 ?x3669) ?x7022) (* 11.0 |v3:14|)) (* ?x7122 |v5:12|)) ?x5762)))
 (let (($x1824 (and (or (<= (+ (+ ?x9153 (* 20.0 |v17:0|)) ?x4324) ?x2540) $x6228) (and (<= (+ (+ ?x9351 ?x1254) ?x6390) 6.0) $x6510))))
 (let ((?x8164 (* ?x3237 |v2:15|)))
 (let ((?x4004 (* ?x2540 |v2:15|)))
 (let ((?x163 (+ (+ (+ (+ (* ?x6156 |v17:0|) (* ?x2540 |v1:16|)) ?x8800) (* ?x6156 |v14:3|)) (* 0.0 ?x9214))))
 (let ((?x1613 (* 16.0 |v16:1|)))
 (let ((?x1052 (* ?x9179 ?x3669)))
 (let ((?x7364 (* 6.0 ?x439)))
 (let ((?x553 (+ (+ (+ (+ (* ?x9179 |v5:12|) (* 4.0 |v1:16|)) (* ?x3312 |v17:0|)) ?x9460) ?x7364)))
 (let (($x3180 (and (<= (+ (+ ?x553 ?x1052) ?x1613) 18.0) (<= (+ (+ ?x163 ?x4004) ?x8164) 18.0))))
 (let ((?x4173 (* 12.0 |v13:4|)))
 (let ((?x6490 (+ (+ (+ (* ?x5187 |v0:17|) (* 2.0 |v1:16|)) (* 19.0 |v13:4|)) (* ?x5537 ?x4856))))
 (let ((?x223 (* ?x8355 |v1:16|)))
 (let ((?x9740 (* ?x7122 ?x5679)))
 (let ((?x8988 (+ (+ (+ (+ (* 12.0 |v3:14|) (* 10.0 |v0:17|)) (* 17.0 |v12:5|)) ?x6142) ?x9740)))
 (let (($x525 (or (<= (+ (+ ?x8988 ?x223) ?x5244) 3.0) (<= (+ (+ (+ ?x6490 (* ?x6156 ?x3669)) (* ?x8355 ?x4856)) ?x4173) ?x6156))))
 (let ((?x4814 (* ?x9566 |v3:14|)))
 (let ((?x2792 (* ?x6059 |v3:14|)))
 (let ((?x9396 (* ?x5537 ?x439)))
 (let ((?x3670 (+ (+ (+ (+ (* ?x286 |v1:16|) (* ?x7925 |v14:3|)) (* ?x7122 |v15:2|)) ?x9396) ?x2792)))
 (let ((?x8821 (* 14.0 ?x3669)))
 (let ((?x1609 (+ (+ (+ (* ?x4592 ?x9214) (* 6.0 |v5:12|)) (* ?x6059 |v17:0|)) (* 7.0 |v17:0|))))
 (let (($x3330 (and (<= (+ (+ (+ ?x1609 ?x7554) ?x8821) ?x2942) 20.0) (<= (+ (+ ?x3670 ?x5679) ?x4814) 19.0))))
 (let ((?x1812 (* ?x3812 ?x4856)))
 (let ((?x8934 (* 17.0 ?x5679)))
 (let ((?x6131 (* 19.0 |v0:17|)))
 (let ((?x4203 (+ (+ (+ (+ |v16:1| (* ?x4592 |v17:0|)) (* ?x1687 ?x9214)) (* 5.0 |v13:4|)) ?x6131)))
 (let ((?x5874 (* ?x3312 |v17:0|)))
 (let ((?x4984 (* 4.0 |v16:1|)))
 (let ((?x3632 (+ (+ (+ (+ ?x3778 (* ?x1687 |v2:15|)) (* ?x3237 |v12:5|)) (* 4.0 |v14:3|)) ?x4984)))
 (let (($x7168 (or (<= (+ (+ ?x3632 ?x1374) ?x5874) ?x3312) (<= (+ (+ ?x4203 ?x8934) ?x1812) ?x6156))))
 (let ((?x6691 (+ (+ (+ (+ (+ ?x6994 (* 19.0 |v14:3|)) ?x8164) ?x2596) (* 10.0 |v15:2|)) ?x68)))
 (let ((?x2455 (* 13.0 |v12:5|)))
 (let ((?x2083 (+ (+ (+ (+ (* ?x2540 |v15:2|) (* 10.0 ?x9214)) (* 14.0 |v1:16|)) ?x1526) ?x1613)))
 (let (($x7839 (and (<= (+ (+ ?x2083 (* ?x6059 ?x5679)) ?x2455) ?x9566) (<= (+ ?x6691 |v15:2|) ?x9308))))
 (let ((?x8208 (* 7.0 ?x439)))
 (let ((?x7823 (* ?x3775 |v2:15|)))
 (let ((?x1941 (+ (+ (+ (+ ?x307 (* ?x5187 |v12:5|)) (* ?x8355 |v14:3|)) (* ?x7925 |v5:12|)) ?x7823)))
 (let ((?x4107 (+ (+ (+ (+ (* 8.0 |v2:15|) (* 7.0 |v5:12|)) (* ?x7122 |v0:17|)) |v13:4|) (* 17.0 ?x9214))))
 (let (($x5142 (or (<= (+ (+ ?x4107 (* ?x7410 ?x9214)) (* ?x5187 |v15:2|)) ?x7122) (<= (+ (+ ?x1941 (* ?x7468 |v14:3|)) ?x8208) ?x7468))))
 (let ((?x7314 (* 17.0 |v5:12|)))
 (let ((?x3203 (* 13.0 |v2:15|)))
 (let ((?x2795 (* 17.0 |v4:13|)))
 (let ((?x3452 (+ (+ (+ (+ (* ?x6156 |v13:4|) (* ?x7122 ?x4856)) (* 8.0 ?x3669)) ?x2596) ?x2795)))
 (let ((?x4140 (* 20.0 |v3:14|)))
 (let ((?x7082 (* 18.0 |v1:16|)))
 (let ((?x3220 (+ (+ (+ (+ (* 2.0 |v17:0|) (* ?x5187 |v0:17|)) (* ?x7122 |v0:17|)) ?x7082) ?x4140)))
 (let (($x8865 (or (<= (+ (+ ?x3220 (* ?x9179 ?x2701)) |v16:1|) 0.0) (<= (+ (+ ?x3452 ?x3203) ?x7314) ?x6059))))
 (let (($x5372 (and (or (and $x8865 $x5142) (and $x7839 $x7168)) (and (and $x3330 $x525) $x3180))))
 (let (($x3094 (or (or $x5372 (and $x1824 (or (<= (+ ?x737 ?x452) 6.0) (or $x5283 $x1109)))) $x8188)))
 (let ((?x9183 (* ?x6156 |v3:14|)))
 (let ((?x996 (* ?x3775 |v3:14|)))
 (let ((?x8067 (+ (+ (+ (+ (+ ?x2549 |v16:1|) (* 18.0 |v12:5|)) (* ?x7122 |v1:16|)) ?x996) ?x5419)))
 (let ((?x2220 (* 11.0 |v12:5|)))
 (let ((?x6882 (* ?x6059 |v0:17|)))
 (let ((?x3288 (+ (+ (+ (+ (* ?x7925 |v14:3|) (* 4.0 |v2:15|)) (* 14.0 |v13:4|)) ?x4942) ?x6882)))
 (let ((?x1730 (+ (+ (* ?x7122 |v3:14|) (* 0.0 |v0:17|)) (* ?x286 |v5:12|))))
 (let (($x4301 (<= (+ (+ (+ (+ ?x1730 (* 13.0 |v13:4|)) ?x9396) (* 14.0 ?x4856)) ?x8821) ?x7122)))
 (let ((?x224 (* 3.0 |v15:2|)))
 (let ((?x692 (* ?x7410 |v4:13|)))
 (let ((?x4067 (+ (+ (+ (+ (+ ?x4443 (* 5.0 |v15:2|)) ?x1019) ?x893) (* ?x9566 |v16:1|)) ?x692)))
 (let ((?x9267 (* ?x6156 |v5:12|)))
 (let ((?x4507 (* 15.0 |v2:15|)))
 (let ((?x1727 (+ (+ (+ (+ (* ?x7468 |v3:14|) ?x9460) (* ?x8355 |v12:5|)) (* 12.0 ?x2701)) ?x4507)))
 (let (($x6594 (or (<= (+ (+ ?x1727 (* ?x6156 ?x4856)) ?x9267) 11.0) (<= (+ ?x4067 ?x224) 2.0))))
 (let (($x9474 (or (or $x6594 (and $x4301 (<= (+ (+ ?x3288 ?x2220) ?x8934) ?x9566))) (<= (+ ?x8067 ?x9183) 0.0))))
 (let ((?x519 (+ (+ (+ (* ?x9179 |v2:15|) (* 7.0 |v5:12|)) (* ?x9308 |v4:13|)) (* ?x3237 |v4:13|))))
 (let ((?x8747 (* ?x9179 ?x5679)))
 (let ((?x8750 (+ (+ (+ (+ (* ?x7468 |v0:17|) ?x9267) (* 4.0 |v17:0|)) (* ?x7468 |v16:1|)) ?x8747)))
 (let (($x1516 (or (<= (+ (+ ?x8750 ?x9120) (* ?x9179 |v15:2|)) ?x3237) (<= (+ (+ (+ ?x519 (* 2.0 |v13:4|)) ?x4173) ?x2504) 12.0))))
 (let ((?x890 (* 13.0 |v4:13|)))
 (let ((?x8078 (* 9.0 ?x2701)))
 (let ((?x8480 (+ (+ (+ (+ (* ?x2540 |v5:12|) ?x6142) (* 0.0 |v2:15|)) (* 7.0 |v14:3|)) (* ?x9566 ?x439))))
 (let ((?x5065 (* ?x6059 |v4:13|)))
 (let ((?x6212 (* ?x4592 |v2:15|)))
 (let ((?x9659 (+ (+ (+ (+ (+ ?x3778 (* ?x8355 |v15:2|)) (* ?x5537 |v0:17|)) ?x7554) ?x6212) (* ?x9566 |v15:2|))))
 (let ((?x2452 (* ?x8355 |v14:3|)))
 (let ((?x6511 (* 10.0 |v15:2|)))
 (let ((?x8901 (+ (+ (+ (+ (* ?x286 ?x439) ?x114) (* 11.0 |v16:1|)) (* ?x9566 ?x3669)) ?x6511)))
 (let ((?x4761 (* ?x6156 |v1:16|)))
 (let ((?x7998 (+ (+ (+ (* 5.0 |v15:2|) (* ?x7468 |v12:5|)) (* 9.0 |v17:0|)) (* ?x3237 |v14:3|))))
 (let (($x4115 (and (<= (+ (+ (+ ?x7998 ?x757) ?x472) ?x4761) 8.0) (<= (+ (+ ?x8901 (* 3.0 |v12:5|)) ?x2452) ?x2540))))
 (let (($x3811 (or (or $x4115 (<= (+ ?x9659 ?x5065) 11.0)) (or (<= (+ (+ ?x8480 ?x8078) ?x890) ?x9566) $x1516))))
 (let ((?x800 (* 2.0 |v0:17|)))
 (let ((?x7744 (* ?x3312 |v3:14|)))
 (let ((?x292 (* 20.0 |v14:3|)))
 (let ((?x356 (+ (+ (+ (+ (* 8.0 ?x439) (* 20.0 ?x9214)) (* ?x7122 |v15:2|)) ?x292) ?x7744)))
 (let ((?x1252 (* ?x6156 |v2:15|)))
 (let ((?x5562 (+ (+ (+ (+ (+ |v13:4| (* 7.0 |v15:2|)) ?x1541) ?x5637) (* 7.0 |v0:17|)) ?x1252)))
 (let (($x7035 (and (<= (+ ?x5562 ?x8620) 9.0) (<= (+ (+ ?x356 (* ?x3237 ?x9214)) ?x800) ?x7410))))
 (let ((?x3725 (* ?x9179 |v17:0|)))
 (let ((?x1710 (+ (+ (+ (+ |v15:2| (* ?x7468 ?x2701)) (* ?x7468 |v13:4|)) ?x9740) (* ?x3312 |v16:1|))))
 (let ((?x3408 (* 2.0 ?x439)))
 (let ((?x1106 (* 8.0 |v5:12|)))
 (let ((?x6308 (* 5.0 |v4:13|)))
 (let ((?x7439 (+ (+ (+ (+ (* 8.0 ?x439) (* 15.0 ?x5679)) (* ?x6059 |v2:15|)) ?x6308) ?x1106)))
 (let (($x9048 (and (<= (+ (+ ?x7439 ?x8934) ?x3408) 17.0) (<= (+ (+ ?x1710 (* ?x3775 |v17:0|)) ?x3725) 16.0))))
 (let ((?x220 (* ?x5187 |v4:13|)))
 (let ((?x520 (+ (+ (+ (+ (* 16.0 |v13:4|) (* ?x6059 |v12:5|)) (* ?x7468 ?x4856)) ?x50) (* ?x3775 ?x5679))))
 (let ((?x6160 (* 14.0 |v17:0|)))
 (let ((?x4974 (* 13.0 ?x5679)))
 (let ((?x2722 (+ (+ (+ (* 16.0 ?x439) (* ?x3312 ?x3669)) (* ?x9308 |v3:14|)) (* ?x3312 |v15:2|))))
 (let (($x1301 (and (<= (+ (+ (+ ?x2722 ?x4974) ?x6160) ?x4443) ?x1687) (<= (+ (+ ?x520 ?x975) ?x220) ?x5537))))
 (let ((?x9082 (* 8.0 ?x439)))
 (let ((?x7994 (* 5.0 |v17:0|)))
 (let ((?x2585 (* 12.0 ?x4856)))
 (let ((?x6254 (+ (+ (+ (+ (+ ?x3450 (* ?x7122 ?x9214)) (* 7.0 |v2:15|)) ?x78) ?x2585) ?x7994)))
 (let ((?x7255 (+ (+ (+ (* 15.0 |v17:0|) (* ?x7410 ?x4856)) (* 11.0 ?x2701)) (* 17.0 |v13:4|))))
 (let (($x7681 (and (<= (+ (+ (+ ?x7255 (* ?x3237 ?x2701)) ?x3725) (* 4.0 |v13:4|)) 13.0) (<= (+ ?x6254 ?x9082) 7.0))))
 (let ((?x4064 (* 11.0 |v5:12|)))
 (let ((?x4851 (* ?x3237 |v13:4|)))
 (let ((?x2768 (+ (+ (+ (+ (* 17.0 ?x4856) (* ?x5187 |v12:5|)) (* ?x3237 |v5:12|)) ?x4851) ?x4064)))
 (let ((?x4529 (* 3.0 ?x5679)))
 (let ((?x9850 (* 13.0 ?x9214)))
 (let ((?x5109 (* 8.0 ?x4856)))
 (let ((?x6154 (+ (+ (+ (+ (* 19.0 |v5:12|) (* 2.0 ?x3669)) (* ?x3775 |v14:3|)) ?x5109) ?x9850)))
 (let (($x7921 (and (<= (+ (+ ?x6154 ?x1254) ?x4529) ?x5187) (<= (+ (+ ?x2768 (* ?x3237 ?x4856)) ?x2504) ?x4592))))
 (let ((?x8589 (* 5.0 |v0:17|)))
 (let ((?x2928 (* 15.0 |v17:0|)))
 (let ((?x7265 (* ?x8355 |v15:2|)))
 (let ((?x6256 (+ (+ (+ (+ (+ (* ?x7122 ?x4856) (* ?x5537 ?x2701)) ?x1544) ?x6994) ?x7265) ?x2928)))
 (let ((?x6207 (* 20.0 |v1:16|)))
 (let ((?x5501 (+ (+ (+ (+ (* ?x3237 ?x3669) ?x68) (* ?x7122 |v12:5|)) (* ?x3237 |v5:12|)) ?x5679)))
 (let (($x6077 (and (and (<= (+ (+ ?x5501 ?x6207) ?x2220) 2.0) (<= (+ ?x6256 ?x8589) 2.0)) $x7921)))
 (let ((?x7367 (* ?x9566 |v17:0|)))
 (let ((?x419 (* 20.0 ?x3669)))
 (let ((?x2001 (* 6.0 |v3:14|)))
 (let ((?x2211 (+ (+ (+ (+ (* 2.0 |v17:0|) (* 19.0 ?x439)) (* ?x9308 |v12:5|)) ?x2001) ?x3725)))
 (let ((?x6356 (* 19.0 ?x2701)))
 (let ((?x6597 (* ?x4592 ?x9214)))
 (let ((?x9165 (* 11.0 |v0:17|)))
 (let ((?x8009 (+ (+ (* 6.0 |v2:15|) (* 13.0 |v0:17|)) ?x9165)))
 (let (($x7139 (or (<= (+ (+ (+ (+ ?x8009 ?x6597) ?x6356) (* ?x7410 ?x3669)) |v13:4|) 13.0) (<= (+ (+ ?x2211 ?x419) ?x7367) 6.0))))
 (let ((?x7056 (* 10.0 ?x2701)))
 (let ((?x5850 (* 18.0 |v14:3|)))
 (let ((?x4944 (+ (+ (+ (+ (* ?x7468 |v13:4|) (* 20.0 ?x5679)) (* 2.0 |v12:5|)) ?x5850) (* ?x9179 |v14:3|))))
 (let (($x5862 (or (and (and (<= (+ (+ ?x4944 ?x7056) ?x5565) 2.0) $x7139) $x6077) (and (or $x7681 $x1301) (and $x9048 $x7035)))))
 (let ((?x779 (* 4.0 ?x3669)))
 (let ((?x116 (* 19.0 |v5:12|)))
 (let ((?x2314 (+ (+ (+ (+ (+ (* ?x9566 |v4:13|) ?x7672) ?x4064) (* 17.0 ?x2701)) ?x116) ?x8747)))
 (let (($x4184 (not (= |v6:11_st| (RMk1 val!10331)))))
 (let (($x3947 (not (= |v7:10_st| (RMk1 val!10330)))))
 (let (($x3746 (not (= |v8:9_st| (RMk1 val!10329)))))
 (let (($x3505 (not (= |v9:8_st| (RMk1 val!10328)))))
 (let (($x1202 (not (= |v10:7_st| (RMk1 val!10327)))))
 (let (($x2351 (not (= |v11:6_st| (RMk1 val!10326)))))
 (and $x2351 $x1202 $x3505 $x3746 $x3947 $x4184 (or (or (<= (+ ?x2314 ?x779) ?x5187) (or $x5862 (and $x3811 $x9474))) $x3094))))))))))))))))))))))))))))))))))))))))))))))))))))))))))))))))))))))))))))))))))))))))))))))))))))))))))))))))))))))))))))))))))))))))))))))))))))))))))))))))))))))))))))))))))))))))))))))))))))))))))))))))))))))))))))))))))))))))))))))))))))))))))))))))))))))))))))))))))))))))))))))))))))))))))))))))))))))))))))))))))))))))))))))
 )
 )
 )
 )
 )
 )
 )
 )
 )
 )
 )
 )
 )
 )
 )
 )
 )
 )
(check-sat)
